(declare-fun e () String)
(declare-fun c () String)
(declare-fun g () String)
(declare-fun b () String)
(declare-fun d () String)
(declare-fun f () String)
(declare-fun a () String)
(declare-fun h () String)
(assert (= f f))
(assert (= (str.++ c "e") (str.++ "aaf" a)))
(assert (= (str.++ g "be" e "d") (str.++ "c" d g "f" b h)))

(check-sat)
